(set-logic QF_LIA)
(set-info :ran/ran2.smt2)
(set-info :smt-lib-version 2.0)
(declare-fun x1 () Int)
(declare-fun x2 () Int)
(declare-fun x3 () Int)
(declare-fun x4 () Int)
(declare-fun x5 () Int)
(assert (<= (+ (* (- 7) x1) (* (- 7) x2) (* 8 x3) (* 7 x4) (* 9 x5) ) 189))
(assert (<= (+ (* 1 x1) (* 1 x2) (* (- 4) x3) (* 3 x4) (* 5 x5) ) (- 152)))
(assert (<= (+ (* (- 3) x1) (* 5 x2) (* (- 6) x3) (* 5 x4) (* 2 x5) ) 0))
(assert (<= (+ (* 7 x1) (* (- 2) x2) (* (- 2) x3) (* 4 x4) (* 10 x5) ) 200))
(assert (<= (+ (* (- 7) x1) (* (- 7) x2) (* (- 1) x3) (* 4 x4) (* 10 x5) ) (- 147)))
(assert (<= (+ (* 0 x1) (* (- 10) x2) (* 1 x3) (* (- 3) x4) (* 7 x5) ) 314))
(assert (<= (+ (* (- 9) x1) (* (- 5) x2) (* 6 x3) (* (- 5) x4) (* 8 x5) ) 153))
(assert (<= (+ (* (- 4) x1) (* (- 8) x2) (* (- 8) x3) (* (- 2) x4) (* 7 x5) ) (- 249)))
(assert (<= (+ (* 8 x1) (* 1 x2) (* (- 9) x3) (* (- 5) x4) (* (- 6) x5) ) 199))
(assert (<= (+ (* 9 x1) (* (- 3) x2) (* (- 10) x3) (* (- 3) x4) (* 9 x5) ) (- 84)))
(assert (<= (+ (* 1 x1) (* 0 x2) (* 0 x3) (* 0 x4) (* 0 x5) ) 316))
(assert (<= (+ (* (- 1) x1) (* 0 x2) (* 0 x3) (* 0 x4) (* 0 x5) ) 316))
(assert (<= (+ (* 0 x1) (* 1 x2) (* 0 x3) (* 0 x4) (* 0 x5) ) 316))
(assert (<= (+ (* 0 x1) (* (- 1) x2) (* 0 x3) (* 0 x4) (* 0 x5) ) 316))
(assert (<= (+ (* 0 x1) (* 0 x2) (* 1 x3) (* 0 x4) (* 0 x5) ) 316))
(assert (<= (+ (* 0 x1) (* 0 x2) (* (- 1) x3) (* 0 x4) (* 0 x5) ) 316))
(assert (<= (+ (* 0 x1) (* 0 x2) (* 0 x3) (* 1 x4) (* 0 x5) ) 316))
(assert (<= (+ (* 0 x1) (* 0 x2) (* 0 x3) (* (- 1) x4) (* 0 x5) ) 316))
(assert (<= (+ (* 0 x1) (* 0 x2) (* 0 x3) (* 0 x4) (* 1 x5) ) 316))
(assert (<= (+ (* 0 x1) (* 0 x2) (* 0 x3) (* 0 x4) (* (- 1) x5) ) 316))
